============================[ Problem Statistics ]=============================|                                                                             ||  Number of variables:          4242                                         ||  Number of clauses:           10385                                         ||  Parse time:                   0.78 s                                       ||                                                                             |============================[ Search Statistics ]==============================| Conflicts |          ORIGINAL         |          LEARNT          | Progress ||           |    Vars  Clauses Literals |    Limit  Clauses Lit/Cl |          |===============================================================================|       100 |    1591     6590  1232091 |     2416      100     53 | 62.501 % ||       250 |    1591     6590  1232091 |     2657      250     75 | 62.495 % |===============================================================================restarts              : 4conflicts             : 417            (352 /sec)decisions             : 776            (0.00 % random) (656 /sec)propagations          : 13678          (11562 /sec)conflict literals     : 34865          (94.51 % deleted)CPU time              : 1.183 sSATISFIABLE